p cnf 7230 14
118 -1545 0
-121 -1498 1546 0
1543 -1545 0
-118 -1506 1544 0
121 -1549 0
1506 -1543 0
-1548 1549 0
-1547 1548 0
-1546 1547 0
-1544 1545 0
1498 -1549 0
1290 -1551 0
-1542 1543 0
1542 -1543 0
